$molecule
0 1
H 0 0 0
H 0 0 0.8
$end

$rem
jobtype sp
basis sto-3g
method hf
$end